1 3 100 903858.01
1 3 200 921295.37
1 3 300 939957.25
2 3 100 1223485.85
2 3 200 1263889.09
2 3 300 1259461.82
3 3 100 1263711.86
3 3 200 1315924.46
3 3 300 1332599.61
4 3 100 1358334.67
4 3 200 1318014.75
4 3 300 1345842.46
5 3 100 1285239.75
5 3 200 1283536.49
5 3 300 1305151.76
